proyfinal/src/viki/013/experimentInOfficeAgust.take6.output/0bcd1c32-1609-4a27-a491-18e8c628426a.als.dat
{'cnf.clauses': '118081',
 'cnf.totvars': '69608',
 'conflict literals': '5494',
 'conflicts': '523',
 'decisions': '12753',
 'memused.mb': '16.40',
 'outcome': 'UNSAT',
 'propagations': '609341',
 'restarts': '5',
 'solver.msecs': 56,
 'task.msecs': 102}
